language Essence 1.3

letting bot_end be [621, 14, 522, 78, 130, 608, 1, 19, 15, 107, 5, 67, 624, 18, 4; int(1..15)]
letting bot_start be [176, 424, 22, 642, 561, 14, 411, 434, 433, 546, 440, 486, 167, 455, 466; int(1..15)]
letting buffer_col be 2
letting buffer_row be 2
letting corridor_size be 1
letting n_shelves_col be 1
letting n_shelves_row be 44
letting shelf_col_size be 2
letting shelf_row_size be 1
